(set-logic HORN)
(declare-fun state (Int (Array Int Int) (Array Int Int) (Array Int Int) (Array Int Int) Int Int (Array Int Int) (Array Int Int) Int Int Int Int Int Int Int Int Int Int Int Int Int Int Int Int Int Int Int Int Int Int Int Int Int Int Int Int Int Int Int Int Bool Bool Bool Bool Bool (Array Int Int) Int) Bool)
(assert (forall ((|A_26| Int) (|B_26| (Array Int Int)) (|C_26| (Array Int Int)) (|D_26| (Array Int Int)) (|E_26| (Array Int Int)) (|F_26| Int) (|G_26| Int) (|H_26| (Array Int Int)) (|I_26| (Array Int Int)) (|J_26| Int) (|K_26| Int) (|L_26| Int) (|M_26| Int) (|N_26| Int) (|O_26| Int) (|P_26| Int) (|Q_26| Int) (|Q1_16| Int) (|S_26| Int) (|T_26| Int) (|U_26| Int) (|V_26| Int) (|W_26| Int) (|X_26| Int) (|Y_26| Int) (|Z_26| Int) (|A1_26| Int) (|B1_26| Int) (|C1_26| Int) (|D1_26| Int) (|E1_26| Int) (|F1_26| Int) (|G1_26| Int) (|H1_26| Int) (|I1_26| Int) (|J1_26| Int) (|K1_26| Int) (|L1_26| Int) (|M1_26| Int) (|N1_26| Int) (|O1_26| Int) (|P1_26| Bool) (|.loc.5| Bool) (|.loc.6| Bool) (|.loc.7| Bool) (|.loc.8| Bool) (|Q1_0| (Array Int Int)) (|T1_1| Int) (|.x.1254| Int) (|.x.1256| (Array Int Int)) (|.x.1258| (Array Int Int)) (|.x.1260| Int) (|.x.1264| Int) (|.x.1262| (Array Int Int)) (|.x.1266| Int) (|.x.1281| Int) (|.x.1267| Int) (|.x.1270| Int) (|.x.1277| Int) (|.x.1276| Int) (|.x.1271| Int) (|.x.1288| Int) (|P1_31| Bool) (|.x.1285| Int) (|.x.1273| Int) (|.x.1265| Int) (|.x.1255| (Array Int Int)) (|.x.1287| Int) (|.loc.9| Bool) (|.loc.11| Bool) (|.loc.10| Bool) (|.x.1289| Int) (|.x.1290| Int) (|.x.1283| Int) (|.x.1278| Int) (|.x.1280| Int) (|.x.1294| Int) (|.x.1279| Int) (|.x.1272| Int) (|.x.1269| Int) (|.x.1257| (Array Int Int)) (|.x.1275| Int) (|.x.1282| Int) (|.x.1274| Int) (|.loc.12| Bool) (|.x.1284| Int) (|.x.1291| Int) (|.x.1268| Int) (|.x.1292| Int) (|.x.1293| Int) (|.x.1286| Int) (|.x.1259| Int) (|.x.1263| Int) (|.x.1261| (Array Int Int)) (|.xtv.1| (Array Int Int)) (|.xtv.2| Int)) (=> (and (and (and (and (not .loc.6) (not .loc.5)) (not .loc.7)) (not .loc.8)) (and (and (and (and (and (= D_26 E_26) (not P1_26)) (= F_26 G_26)) (= J_26 K_26)) (= H_26 I_26)) (= B_26 C_26))) (state |A_26| |B_26| |C_26| |D_26| |E_26| |F_26| |G_26| |H_26| |I_26| |J_26| |K_26| |L_26| |M_26| |N_26| |O_26| |P_26| |Q_26| |Q1_16| |S_26| |T_26| |U_26| |V_26| |W_26| |X_26| |Y_26| |Z_26| |A1_26| |B1_26| |C1_26| |D1_26| |E1_26| |F1_26| |G1_26| |H1_26| |I1_26| |J1_26| |K1_26| |L1_26| |M1_26| |N1_26| |O1_26| |P1_26| |.loc.5| |.loc.6| |.loc.7| |.loc.8| |Q1_0| |T1_1|))))
(assert (forall ((|A_26| Int) (|B_26| (Array Int Int)) (|C_26| (Array Int Int)) (|D_26| (Array Int Int)) (|E_26| (Array Int Int)) (|F_26| Int) (|G_26| Int) (|H_26| (Array Int Int)) (|I_26| (Array Int Int)) (|J_26| Int) (|K_26| Int) (|L_26| Int) (|M_26| Int) (|N_26| Int) (|O_26| Int) (|P_26| Int) (|Q_26| Int) (|Q1_16| Int) (|S_26| Int) (|T_26| Int) (|U_26| Int) (|V_26| Int) (|W_26| Int) (|X_26| Int) (|Y_26| Int) (|Z_26| Int) (|A1_26| Int) (|B1_26| Int) (|C1_26| Int) (|D1_26| Int) (|E1_26| Int) (|F1_26| Int) (|G1_26| Int) (|H1_26| Int) (|I1_26| Int) (|J1_26| Int) (|K1_26| Int) (|L1_26| Int) (|M1_26| Int) (|N1_26| Int) (|O1_26| Int) (|P1_26| Bool) (|.loc.5| Bool) (|.loc.6| Bool) (|.loc.7| Bool) (|.loc.8| Bool) (|Q1_0| (Array Int Int)) (|T1_1| Int) (|.x.1254| Int) (|.x.1256| (Array Int Int)) (|.x.1258| (Array Int Int)) (|.x.1260| Int) (|.x.1264| Int) (|.x.1262| (Array Int Int)) (|.x.1266| Int) (|.x.1281| Int) (|.x.1267| Int) (|.x.1270| Int) (|.x.1277| Int) (|.x.1276| Int) (|.x.1271| Int) (|.x.1288| Int) (|P1_31| Bool) (|.x.1285| Int) (|.x.1273| Int) (|.x.1265| Int) (|.x.1255| (Array Int Int)) (|.x.1287| Int) (|.loc.9| Bool) (|.loc.11| Bool) (|.loc.10| Bool) (|.x.1289| Int) (|.x.1290| Int) (|.x.1283| Int) (|.x.1278| Int) (|.x.1280| Int) (|.x.1294| Int) (|.x.1279| Int) (|.x.1272| Int) (|.x.1269| Int) (|.x.1257| (Array Int Int)) (|.x.1275| Int) (|.x.1282| Int) (|.x.1274| Int) (|.loc.12| Bool) (|.x.1284| Int) (|.x.1291| Int) (|.x.1268| Int) (|.x.1292| Int) (|.x.1293| Int) (|.x.1286| Int) (|.x.1259| Int) (|.x.1263| Int) (|.x.1261| (Array Int Int)) (|.xtv.1| (Array Int Int)) (|.xtv.2| Int)) (=> (and (state |A_26| |B_26| |C_26| |D_26| |E_26| |F_26| |G_26| |H_26| |I_26| |J_26| |K_26| |L_26| |M_26| |N_26| |O_26| |P_26| |Q_26| |Q1_16| |S_26| |T_26| |U_26| |V_26| |W_26| |X_26| |Y_26| |Z_26| |A1_26| |B1_26| |C1_26| |D1_26| |E1_26| |F1_26| |G1_26| |H1_26| |I1_26| |J1_26| |K1_26| |L1_26| |M1_26| |N1_26| |O1_26| |P1_26| |.loc.5| |.loc.6| |.loc.7| |.loc.8| |Q1_0| |T1_1|) (let ((.def_58 (not .loc.6))) (let ((.def_59 (not .loc.5))) (let ((.def_61 (not .loc.7))) (let ((.def_63 (not .loc.8))) (let ((.def_104 (= .x.1270 .x.1277))) (let ((.def_107 (= .x.1277 .x.1276))) (let ((.def_118 (and (<= .x.1271 2147483647) (<= (- 2147483648) .x.1271)))) (let ((.def_119 (and (= .x.1270 .x.1271) .def_118))) (let ((.def_122 (= I1_26 .x.1288))) (let ((.def_126 (= F1_26 .x.1285))) (let ((.def_129 (= T_26 .x.1273))) (let ((.def_132 (= L_26 .x.1265))) (let ((.def_135 (= B_26 .x.1255))) (let ((.def_147 (ite (<= (+ D1_26 (* (- 4294967296) (to_int (* (/ 1 4294967296) (to_real D1_26))))) 2147483647) (+ D1_26 (* (- 4294967296) (to_int (* (/ 1 4294967296) (to_real D1_26))))) (+ (- 4294967296) (+ D1_26 (* (- 4294967296) (to_int (* (/ 1 4294967296) (to_real D1_26))))))))) (let ((.def_149 (or P1_26 (= .x.1271 .def_147)))) (let ((.def_163 (= P1_26 P1_31))) (let ((.def_166 (= H1_26 .x.1287))) (let ((.def_168 (= Q1_16 .x.1271))) (let ((.def_170 (= Q_26 .x.1270))) (let ((.def_175 (not .loc.9))) (let ((.def_179 (not .loc.10))) (let ((.def_188 (and .def_135 (and .def_132 (and .def_129 (and .def_122 .def_126)))))) (let ((.def_194 (not .loc.11))) (let ((.def_227 (and .loc.5 .def_188))) (let ((.def_237 (<= 1000 K1_26))) (let ((.def_238 (or P1_26 .def_237))) (let ((.def_242 (= J1_26 .x.1289))) (let ((.def_244 (= K1_26 .x.1290))) (let ((.def_247 (= D1_26 .x.1283))) (let ((.def_250 (= Y_26 .x.1278))) (let ((.def_265 (or P1_31 (= (+ K1_26 (* (- 1) .x.1290)) (- 1))))) (let ((.def_268 (or P1_26 (not .def_237)))) (let ((.def_272 (= A1_26 .x.1280))) (let ((.def_274 (= O1_26 .x.1294))) (let ((.def_277 (= Z_26 .x.1279))) (let ((.def_280 (= S_26 .x.1272))) (let ((.def_283 (= P_26 .x.1269))) (let ((.def_286 (= D_26 .x.1257))) (let ((.def_291 (select D_26 L_26))) (let ((.def_295 (= .x.1290 1))) (let ((.def_296 (= .x.1294 .x.1269))) (let ((.def_298 (= .x.1280 .x.1272))) (let ((.def_300 (= F1_26 .x.1272))) (let ((.def_302 (= L_26 .x.1269))) (let ((.def_306 (= .x.1283 (select (select .x.1257 .x.1294) .x.1280)))) (let ((.def_322 (and P1_26 .def_274))) (let ((.def_350 (<= 999 C1_26))) (let ((.def_353 (and .def_242 (and .def_244 .def_274)))) (let ((.def_359 (and .def_250 (and .def_277 (and .def_272 (and .def_247 (and .def_126 (and .def_122 .def_353)))))))) (let ((.def_363 (and .def_132 (and .def_283 (and .def_280 (and .def_129 .def_359)))))) (let ((.def_380 (= V_26 .x.1275))) (let ((.def_382 (= C1_26 .x.1282))) (let ((.def_385 (= U_26 .x.1274))) (let ((.def_419 (not .loc.12))) (let ((.def_425 (= E1_26 .x.1284))) (let ((.def_427 (= L1_26 .x.1291))) (let ((.def_429 (= W_26 .x.1276))) (let ((.def_432 (= O_26 .x.1268))) (let ((.def_500 (and .def_274 .def_427))) (let ((.def_567 (= M1_26 .x.1292))) (let ((.def_569 (= N1_26 .x.1293))) (let ((.def_570 (and .def_567 .def_569))) (let ((.def_572 (= G1_26 .x.1286))) (let ((.def_574 (= X_26 .x.1277))) (let ((.def_592 (select D_26 .x.1265))) (let ((.def_653 (and .loc.5 (and .def_135 (and .def_286 (and .def_132 (and .def_432 (and .def_283 (and .def_280 (and .def_129 (and .def_385 (and .def_380 (and .def_429 (and .def_574 (and .def_250 (and .def_277 (and .def_272 (and .def_382 (and .def_247 (and .def_425 (and .def_126 (and .def_572 (and .def_122 (and .def_242 (and .def_244 (and .def_427 (and .def_567 (and .def_322 .def_569)))))))))))))))))))))))))))) (let ((.def_668 (and .def_427 (and .def_567 (and .def_274 .def_569))))) (let ((.def_688 (and .def_132 (and .def_432 (and .def_283 (and .def_280 (and .def_129 (and .def_385 (and .def_380 (and .def_429 (and .def_574 (and .def_250 (and .def_277 (and .def_272 (and .def_382 (and .def_247 (and .def_425 (and .def_126 (and .def_572 (and .def_122 (and .def_242 (and .def_244 .def_668)))))))))))))))))))))) (let ((.def_691 (and .loc.5 (and .def_135 (and .def_286 .def_688))))) (let ((.def_787 (<= 1000 B1_26))) (and (and (= A_26 .x.1254) (and (= C_26 .x.1256) (and (= E_26 .x.1258) (and (= G_26 .x.1260) (and (= K_26 .x.1264) (= I_26 .x.1262)))))) (or (and (or (and (and (= M_26 .x.1266) (and (= B1_26 .x.1281) (= N_26 .x.1267))) (or (or (or (or (or (or (or (and (or (or (or (or (and (or (and (or (or (and (or (and (or (and (or (or (and .loc.6 (or (or (and (or (and .def_59 (and (or (not .def_104) (or P1_26 (not .def_107))) (and (or P1_26 .def_119) (and (and (and (and (and (and .def_122 P1_31) .def_126) .def_129) .def_132) .def_135) .def_149)))) (and (or P1_26 (and (= .x.1288 1) (= .x.1255 (store B_26 L_26 0)))) (and (and (and (and (and .loc.5 (or P1_31 (= .x.1288 .x.1273))) .def_163) .def_166) .def_168) .def_170))) (and (and .def_175 .loc.11) .def_179)) (and (or .def_119 P1_31) (and (or P1_31 (and .def_104 .def_107)) (and (and .def_163 (and .loc.10 (and .loc.9 (and .def_59 (and .def_149 .def_188))))) .def_194)))) (and .def_194 (and .loc.10 (and .loc.9 (and .def_59 (and .def_149 (and .def_135 (and .def_132 (and .def_129 (and .def_126 (and .def_122 (and P1_26 P1_31))))))))))))) (and .def_58 (and .def_194 (and .def_170 (and .def_168 (and .def_166 (and .def_163 (and .def_175 (and .loc.10 (and .loc.5 (and .def_135 (and .def_132 (and .def_129 (and .def_126 (and P1_26 .def_122))))))))))))))) (and (and .def_58 (and .def_194 (and .def_170 (and .def_168 (and .def_166 (and .def_163 (and .def_175 (and .loc.10 .def_227)))))))) .def_238)) (and (and (and .def_242 .def_244) .def_247) .def_250)) (and (and (and .def_58 (and .def_194 (and .def_170 (and .def_168 (and .def_166 (and .def_163 (and .def_179 (and .loc.9 .def_227)))))))) .def_265) .def_268)) (and (and (and (and (and .def_272 .def_274) .def_277) .def_280) .def_283) .def_286)) (and (or P1_26 (and (= .x.1257 (store D_26 L_26 (store .def_291 (+ F1_26 3996) O_26))) (and (and (and (and (and .def_295 .def_296) .def_298) .def_300) .def_302) .def_306))) (and .def_58 (and .def_194 (and .def_170 (and .def_166 (and .def_163 (and .def_179 (and .loc.9 (and .def_59 .def_188)))))))))) (and .loc.8 .def_61)) (and .def_63 (and .def_194 (and .def_170 (and .def_168 (and .def_166 (and .def_163 (and .def_179 (and .def_175 (and .loc.7 (and .loc.6 (and .loc.5 (and .def_135 (and .def_286 (and .def_132 (and .def_283 (and .def_280 (and .def_129 (and .def_250 (and .def_277 (and .def_272 (and .def_247 (and .def_126 (and .def_122 (and .def_242 (and .def_244 .def_322)))))))))))))))))))))))))) (and (or P1_26 .def_350) (and .def_63 (and .def_194 (and .def_170 (and .def_168 (and .def_166 (and .def_163 (and .def_179 (and .def_175 (and .loc.7 (and .loc.6 (and .loc.5 (and .def_135 (and .def_286 .def_363))))))))))))))) (and (and (and .def_380 .def_382) .def_385) .loc.12)) (and (or P1_26 (and (= .x.1257 (store D_26 L_26 (store .def_291 (+ (* 4 C1_26) F1_26) (select .def_291 (+ (+ (* 4 C1_26) F1_26) 4))))) (not .def_350))) (and (or P1_31 (= (+ C1_26 (* (- 1) .x.1282)) (- 1))) (and (and .def_63 (and .def_170 (and .def_168 (and .def_166 (and .def_163 (and .loc.11 (and .loc.10 (and .loc.9 (and .loc.7 (and .loc.6 (and .loc.5 (and .def_135 .def_363)))))))))))) .def_419)))) (and (and (and .def_425 .def_427) .def_429) .def_432)) (and (or P1_31 (and (and (and .def_118 (= .x.1268 (select (select .x.1257 .x.1265) .x.1285))) (= .x.1282 0)) (= .x.1276 .x.1271))) (and .def_419 (and .def_63 (and .def_170 (and .def_166 (and .def_163 (and .loc.11 (and .loc.10 (and .loc.9 (and .def_59 (and .loc.7 (and .loc.6 (and .def_149 (and .def_135 (and .def_286 (and .def_132 (and .def_283 (and .def_280 (and .def_129 (and .def_385 (and .def_359 .def_380)))))))))))))))))))))) (and .def_419 (and .def_63 (and .def_58 (and .def_170 (and .def_168 (and .def_166 (and .def_163 (and .def_175 (and .loc.11 (and .loc.10 (and .loc.7 (and .loc.5 (and .def_135 (and .def_286 (and .def_132 (and .def_432 (and .def_283 (and .def_280 (and .def_129 (and .def_385 (and .def_380 (and .def_429 (and .def_250 (and .def_277 (and .def_272 (and .def_382 (and .def_247 (and .def_425 (and .def_126 (and .def_122 (and .def_242 (and .def_244 (and .def_322 .def_427)))))))))))))))))))))))))))))))))) (and .def_419 (and .def_63 (and .def_238 (and .def_58 (and .def_170 (and .def_168 (and .def_166 (and .def_163 (and .def_175 (and .loc.11 (and .loc.10 (and .loc.7 (and .loc.5 (and .def_135 (and .def_286 (and .def_132 (and .def_432 (and .def_283 (and .def_280 (and .def_129 (and .def_385 (and .def_380 (and .def_429 (and .def_250 (and .def_277 (and .def_272 (and .def_382 (and .def_247 (and .def_425 (and .def_126 (and .def_122 (and .def_242 (and .def_244 .def_500)))))))))))))))))))))))))))))))))) (and .def_419 (and .def_63 (and .def_268 (and .def_265 (and .def_58 (and .def_170 (and .def_168 (and .def_166 (and .def_163 (and .def_179 (and .loc.11 (and .loc.9 (and .loc.7 (and .loc.5 (and .def_135 (and .def_286 (and .def_132 (and .def_432 (and .def_283 (and .def_280 (and .def_129 (and .def_385 (and .def_380 (and .def_429 (and .def_277 (and .def_272 (and .def_382 (and .def_425 (and .def_126 (and .def_122 .def_500))))))))))))))))))))))))))))))) (and (and .def_570 .def_572) .def_574)) (and (or P1_26 (= T1_1 .def_147)) (and (or P1_31 (and (and (and (and (= .x.1285 .x.1272) (and .def_306 (and .def_298 (and .def_296 (and .def_295 (and (= T1_1 .x.1277) (and (<= .x.1277 2147483647) (<= (- 2147483648) .x.1277)))))))) (= .x.1265 .x.1269)) (= .x.1268 (select .def_592 .x.1285))) (= .x.1257 (store D_26 .x.1265 (store (store .def_592 .x.1285 (select .def_592 (+ .x.1285 4))) (+ .x.1285 4) .x.1268))))) (and .def_419 (and .def_63 (and .def_58 (and .def_170 (and .def_166 (and .def_163 (and .def_179 (and .loc.11 (and .loc.9 (and .def_59 (and .loc.7 (and .def_135 (and .def_132 (and .def_129 (and .def_385 (and .def_380 (and .def_429 (and .def_382 (and .def_425 (and .def_126 (and .def_122 .def_427)))))))))))))))))))))))) (and .def_419 (and .def_63 (and .def_170 (and .def_168 (and .def_166 (and .def_163 (and .def_179 (and .def_175 (and .loc.11 (and .def_61 (and .loc.6 .def_653)))))))))))) (and .def_419 (and .def_63 (and .def_238 (and .def_170 (and .def_168 (and .def_166 (and .def_163 (and .def_179 (and .def_175 (and .loc.11 (and .def_61 (and .loc.6 .def_691))))))))))))) (and .def_419 (and .def_63 (and .def_268 (and .def_265 (and .def_194 (and .def_170 (and .def_168 (and .def_166 (and .def_163 (and .loc.10 (and .loc.9 (and .def_61 (and .loc.6 (and .loc.5 (and .def_135 (and .def_286 (and .def_132 (and .def_432 (and .def_283 (and .def_280 (and .def_129 (and .def_385 (and .def_380 (and .def_429 (and .def_574 (and .def_277 (and .def_272 (and .def_382 (and .def_425 (and .def_126 (and .def_572 (and .def_122 .def_668))))))))))))))))))))))))))))))))) (and (or P1_26 (and (= .x.1283 (select (select D_26 .x.1294) .x.1280)) (and .def_300 (and .def_298 (and .def_295 (and .def_296 .def_302)))))) (and .def_419 (and .def_63 (and .def_194 (and .def_170 (and .def_166 (and .def_163 (and .loc.10 (and .loc.9 (and .def_61 (and .def_59 (and .loc.6 (and .def_135 (and .def_286 (and .def_132 (and .def_432 (and .def_129 (and .def_385 (and .def_380 (and .def_429 (and .def_574 (and .def_382 (and .def_425 (and .def_126 (and .def_572 (and .def_122 (and .def_427 .def_570)))))))))))))))))))))))))))) (and .def_419 (and .def_63 (and .def_58 (and .def_194 (and .def_170 (and .def_168 (and .def_166 (and .def_163 (and .def_175 (and .loc.10 (and .def_61 .def_653)))))))))))) (and (or P1_26 .def_787) (and .def_419 (and .def_63 (and .def_58 (and .def_194 (and .def_170 (and .def_168 (and .def_166 (and .def_163 (and .def_175 (and .loc.10 (and .def_61 .def_691)))))))))))))) (and (or P1_26 (and (= .x.1257 (store D_26 L_26 (store .def_291 (+ (* 4 B1_26) F1_26) M_26))) (and (<= (- 2147483648) M_26) (and (<= M_26 2147483647) (not .def_787))))) (and (or P1_31 (= (+ B1_26 (* (- 1) .x.1281)) (- 1))) (and .def_419 (and .def_63 (and .def_58 (and .def_194 (and .def_170 (and .def_168 (and .def_166 (and .def_163 (and .def_179 (and .loc.9 (and .def_61 (and .loc.5 (and .def_135 .def_688)))))))))))))))) (and (= F_26 .x.1259) (and (= J_26 .x.1263) (= H_26 .x.1261)))) (and (or P1_26 (and (and (= .x.1263 0) (= .x.1259 0)) (= Q1_0 (store B_26 0 0)))) (and (or P1_31 (and (and (and (and (and (and (not (<= .x.1254 .x.1265)) (not (= .x.1265 0))) (= .x.1281 0)) (= .x.1285 0)) (= (select Q1_0 .x.1265) 0)) (= .x.1261 (store H_26 .x.1265 4000))) (= .x.1255 (store Q1_0 .x.1265 1)))) (and .def_419 (and .def_63 (and .def_58 (and .def_194 (and .def_168 (and .def_163 (and .def_179 (and .loc.9 (and .def_61 (and .def_59 (and .def_286 (and .def_283 (and .def_280 (and .def_129 (and .def_250 (and .def_277 (and .def_272 (and .def_247 .def_353))))))))))))))))))))))))))))))))))))))))))))))))))))))))))))))))))))))))))))))))))))))))))))) (state |.x.1254| |.x.1255| |.x.1256| |.x.1257| |.x.1258| |.x.1259| |.x.1260| |.x.1261| |.x.1262| |.x.1263| |.x.1264| |.x.1265| |.x.1266| |.x.1267| |.x.1268| |.x.1269| |.x.1270| |.x.1271| |.x.1272| |.x.1273| |.x.1274| |.x.1275| |.x.1276| |.x.1277| |.x.1278| |.x.1279| |.x.1280| |.x.1281| |.x.1282| |.x.1283| |.x.1284| |.x.1285| |.x.1286| |.x.1287| |.x.1288| |.x.1289| |.x.1290| |.x.1291| |.x.1292| |.x.1293| |.x.1294| |P1_31| |.loc.9| |.loc.10| |.loc.11| |.loc.12| |.xtv.1| |.xtv.2|))))
(assert (forall ((|A_26| Int) (|B_26| (Array Int Int)) (|C_26| (Array Int Int)) (|D_26| (Array Int Int)) (|E_26| (Array Int Int)) (|F_26| Int) (|G_26| Int) (|H_26| (Array Int Int)) (|I_26| (Array Int Int)) (|J_26| Int) (|K_26| Int) (|L_26| Int) (|M_26| Int) (|N_26| Int) (|O_26| Int) (|P_26| Int) (|Q_26| Int) (|Q1_16| Int) (|S_26| Int) (|T_26| Int) (|U_26| Int) (|V_26| Int) (|W_26| Int) (|X_26| Int) (|Y_26| Int) (|Z_26| Int) (|A1_26| Int) (|B1_26| Int) (|C1_26| Int) (|D1_26| Int) (|E1_26| Int) (|F1_26| Int) (|G1_26| Int) (|H1_26| Int) (|I1_26| Int) (|J1_26| Int) (|K1_26| Int) (|L1_26| Int) (|M1_26| Int) (|N1_26| Int) (|O1_26| Int) (|P1_26| Bool) (|.loc.5| Bool) (|.loc.6| Bool) (|.loc.7| Bool) (|.loc.8| Bool) (|Q1_0| (Array Int Int)) (|T1_1| Int) (|.x.1254| Int) (|.x.1256| (Array Int Int)) (|.x.1258| (Array Int Int)) (|.x.1260| Int) (|.x.1264| Int) (|.x.1262| (Array Int Int)) (|.x.1266| Int) (|.x.1281| Int) (|.x.1267| Int) (|.x.1270| Int) (|.x.1277| Int) (|.x.1276| Int) (|.x.1271| Int) (|.x.1288| Int) (|P1_31| Bool) (|.x.1285| Int) (|.x.1273| Int) (|.x.1265| Int) (|.x.1255| (Array Int Int)) (|.x.1287| Int) (|.loc.9| Bool) (|.loc.11| Bool) (|.loc.10| Bool) (|.x.1289| Int) (|.x.1290| Int) (|.x.1283| Int) (|.x.1278| Int) (|.x.1280| Int) (|.x.1294| Int) (|.x.1279| Int) (|.x.1272| Int) (|.x.1269| Int) (|.x.1257| (Array Int Int)) (|.x.1275| Int) (|.x.1282| Int) (|.x.1274| Int) (|.loc.12| Bool) (|.x.1284| Int) (|.x.1291| Int) (|.x.1268| Int) (|.x.1292| Int) (|.x.1293| Int) (|.x.1286| Int) (|.x.1259| Int) (|.x.1263| Int) (|.x.1261| (Array Int Int)) (|.xtv.1| (Array Int Int)) (|.xtv.2| Int)) (=> (state |A_26| |B_26| |C_26| |D_26| |E_26| |F_26| |G_26| |H_26| |I_26| |J_26| |K_26| |L_26| |M_26| |N_26| |O_26| |P_26| |Q_26| |Q1_16| |S_26| |T_26| |U_26| |V_26| |W_26| |X_26| |Y_26| |Z_26| |A1_26| |B1_26| |C1_26| |D1_26| |E1_26| |F1_26| |G1_26| |H1_26| |I1_26| |J1_26| |K1_26| |L1_26| |M1_26| |N1_26| |O1_26| |P1_26| |.loc.5| |.loc.6| |.loc.7| |.loc.8| |Q1_0| |T1_1|) (not (and P1_26 (and .loc.8 (and .loc.7 (and (not .loc.6) (not .loc.5)))))))))
(check-sat)
